NAME matlab
ROWS
 N  OBJ
 L  R0      
 L  R1      
 L  R2      
 L  R3      
 L  R4      
 L  R5      
 L  R6      
 L  R7      
 L  R8      
 L  R9      
 L  R10     
 L  R11     
 L  R12     
 L  R13     
 L  R14     
 L  R15     
 L  R16     
 L  R17     
 L  R18     
 L  R19     
 L  R20     
 L  R21     
 L  R22     
 L  R23     
 L  R24     
 L  R25     
 L  R26     
 L  R27     
 L  R28     
 L  R29     
 L  R30     
 L  R31     
 L  R32     
 L  R33     
 L  R34     
 L  R35     
 L  R36     
 L  R37     
 L  R38     
 L  R39     
 L  R40     
 L  R41     
 L  R42     
 L  R43     
 L  R44     
 L  R45     
 L  R46     
 L  R47     
 L  R48     
 L  R49     
 L  R50     
 L  R51     
 L  R52     
 L  R53     
 L  R54     
 L  R55     
 L  R56     
 L  R57     
 L  R58     
 L  R59     
 L  R60     
 L  R61     
 L  R62     
 L  R63     
 L  R64     
 L  R65     
 L  R66     
 L  R67     
 L  R68     
 L  R69     
 L  R70     
 L  R71     
 L  R72     
 L  R73     
 L  R74     
 L  R75     
 L  R76     
 L  R77     
 L  R78     
 L  R79     
 L  R80     
 L  R81     
 L  R82     
 L  R83     
 L  R84     
 L  R85     
 L  R86     
 L  R87     
 L  R88     
 L  R89     
 L  R90     
 L  R91     
 L  R92     
 L  R93     
 L  R94     
 L  R95     
 L  R96     
 L  R97     
 L  R98     
 L  R99     
 L  R100    
 L  R101    
 L  R102    
 L  R103    
 L  R104    
 L  R105    
 L  R106    
 L  R107    
 L  R108    
 L  R109    
 L  R110    
 L  R111    
 L  R112    
 L  R113    
 L  R114    
 L  R115    
 L  R116    
 L  R117    
 L  R118    
 L  R119    
 L  R120    
 L  R121    
 L  R122    
 L  R123    
 L  R124    
 L  R125    
 L  R126    
 L  R127    
 L  R128    
 L  R129    
 L  R130    
 L  R131    
 L  R132    
 L  R133    
 L  R134    
 L  R135    
 L  R136    
 L  R137    
 L  R138    
 L  R139    
 L  R140    
 L  R141    
 L  R142    
 L  R143    
 L  R144    
 L  R145    
 L  R146    
 L  R147    
 L  R148    
 L  R149    
 L  R150    
 L  R151    
 L  R152    
 L  R153    
 L  R154    
 L  R155    
 L  R156    
 L  R157    
 L  R158    
 L  R159    
 L  R160    
 L  R161    
 L  R162    
 L  R163    
 L  R164    
 L  R165    
 L  R166    
 L  R167    
 L  R168    
 L  R169    
 L  R170    
 L  R171    
 L  R172    
 L  R173    
 L  R174    
 L  R175    
 L  R176    
 L  R177    
 L  R178    
 L  R179    
 L  R180    
 L  R181    
 L  R182    
 L  R183    
 L  R184    
 L  R185    
 L  R186    
 L  R187    
 L  R188    
 L  R189    
 L  R190    
 L  R191    
 E  R192    
 E  R193    
 E  R194    
 E  R195    
COLUMNS
    MARKER    'MARKER'                 'INTORG'
    C0        R0        1
    C0        R2        1
    C0        R4        1
    C0        R6        1
    C0        R8        1
    C0        R16       1
    C0        R24       1
    C0        R32       -1
    C0        R34       -1
    C0        R36       -1
    C0        R38       -1
    C0        R40       -1
    C0        R48       -1
    C0        R56       -1
    C0        R192      1
    C1        R1        1
    C1        R3        1
    C1        R5        1
    C1        R7        1
    C1        R9        1
    C1        R17       1
    C1        R25       1
    C1        R33       -1
    C1        R35       -1
    C1        R37       -1
    C1        R39       -1
    C1        R41       -1
    C1        R49       -1
    C1        R57       -1
    C1        R192      1
    C2        R2        1
    C2        R8        1
    C2        R10       1
    C2        R12       1
    C2        R14       1
    C2        R18       1
    C2        R26       1
    C2        R34       -1
    C2        R40       -1
    C2        R42       -1
    C2        R44       -1
    C2        R46       -1
    C2        R50       -1
    C2        R58       -1
    C2        R193      1
    C3        R3        1
    C3        R9        1
    C3        R11       1
    C3        R13       1
    C3        R15       1
    C3        R19       1
    C3        R27       1
    C3        R35       -1
    C3        R41       -1
    C3        R43       -1
    C3        R45       -1
    C3        R47       -1
    C3        R51       -1
    C3        R59       -1
    C3        R193      1
    C4        R4        1
    C4        R12       1
    C4        R16       1
    C4        R18       1
    C4        R20       1
    C4        R22       1
    C4        R28       1
    C4        R36       -1
    C4        R44       -1
    C4        R48       -1
    C4        R50       -1
    C4        R52       -1
    C4        R54       -1
    C4        R60       -1
    C4        R194      1
    C5        R5        1
    C5        R13       1
    C5        R17       1
    C5        R19       1
    C5        R21       1
    C5        R23       1
    C5        R29       1
    C5        R37       -1
    C5        R45       -1
    C5        R49       -1
    C5        R51       -1
    C5        R53       -1
    C5        R55       -1
    C5        R61       -1
    C5        R194      1
    C6        R6        1
    C6        R14       1
    C6        R22       1
    C6        R24       1
    C6        R26       1
    C6        R28       1
    C6        R30       1
    C6        R38       -1
    C6        R46       -1
    C6        R54       -1
    C6        R56       -1
    C6        R58       -1
    C6        R60       -1
    C6        R62       -1
    C6        R195      1
    C7        R7        1
    C7        R15       1
    C7        R23       1
    C7        R25       1
    C7        R27       1
    C7        R29       1
    C7        R31       1
    C7        R39       -1
    C7        R47       -1
    C7        R55       -1
    C7        R57       -1
    C7        R59       -1
    C7        R61       -1
    C7        R63       -1
    C7        R195      1
    MARKER    'MARKER'                 'INTEND'
    C8        R128      -1
    C8        R136      -1
    C8        R144      -1
    C8        R152      -1
    C8        R160      1
    C8        R168      1
    C8        R176      1
    C8        R184      1
    C9        R129      -1
    C9        R137      -1
    C9        R145      -1
    C9        R153      -1
    C9        R161      1
    C9        R169      1
    C9        R177      1
    C9        R185      1
    C10       R130      -1
    C10       R138      -1
    C10       R146      -1
    C10       R154      -1
    C10       R162      1
    C10       R170      1
    C10       R178      1
    C10       R186      1
    C11       R131      -1
    C11       R139      -1
    C11       R147      -1
    C11       R155      -1
    C11       R163      1
    C11       R171      1
    C11       R179      1
    C11       R187      1
    C12       R132      -1
    C12       R140      -1
    C12       R148      -1
    C12       R156      -1
    C12       R164      1
    C12       R172      1
    C12       R180      1
    C12       R188      1
    C13       R133      -1
    C13       R141      -1
    C13       R149      -1
    C13       R157      -1
    C13       R165      1
    C13       R173      1
    C13       R181      1
    C13       R189      1
    C14       R134      -1
    C14       R142      -1
    C14       R150      -1
    C14       R158      -1
    C14       R166      1
    C14       R174      1
    C14       R182      1
    C14       R190      1
    C15       R135      -1
    C15       R143      -1
    C15       R151      -1
    C15       R159      -1
    C15       R167      1
    C15       R175      1
    C15       R183      1
    C15       R191      1
    C16       R0        -1
    C16       R32       2
    C16       R64       -4.0000000000024350e+01
    C16       R96       4
    C16       R128      -4
    C16       R160      4.0000000000024350e+01
    C17       R1        -1
    C17       R33       2
    C17       R65       -4.0000000001048456e+01
    C17       R97       4
    C17       R129      -4
    C17       R161      4.0000000001048456e+01
    C18       R2        -1
    C18       R34       2
    C18       R66       -4.0000000000022752e+01
    C18       R98       4
    C18       R130      -4
    C18       R162      4.0000000000022752e+01
    C19       R3        -1
    C19       R35       2
    C19       R67       -4.0000000001023267e+01
    C19       R99       4
    C19       R131      -4
    C19       R163      4.0000000001023267e+01
    C20       R4        -1
    C20       R36       2
    C20       R68       -4.0000000000020727e+01
    C20       R100      4
    C20       R132      -4
    C20       R164      4.0000000000020727e+01
    C21       R5        -1
    C21       R37       2
    C21       R69       -4.0000000001044690e+01
    C21       R101      4
    C21       R133      -4
    C21       R165      4.0000000001044690e+01
    C22       R6        -1
    C22       R38       2
    C22       R70       -3.9999999999999339e+01
    C22       R102      4
    C22       R134      -4
    C22       R166      3.9999999999999339e+01
    C23       R7        -1
    C23       R39       2
    C23       R71       -4.0000000001001062e+01
    C23       R103      4
    C23       R135      -4
    C23       R167      4.0000000001001062e+01
    C24       R8        -1
    C24       R40       2
    C24       R72       -4.0000000000024350e+01
    C24       R104      4
    C24       R136      -4
    C24       R168      4.0000000000024350e+01
    C25       R9        -1
    C25       R41       2
    C25       R73       -4.0000000001048456e+01
    C25       R105      4
    C25       R137      -4
    C25       R169      4.0000000001048456e+01
    C26       R10       -1
    C26       R42       2
    C26       R74       -4.0000000000022752e+01
    C26       R106      4
    C26       R138      -4
    C26       R170      4.0000000000022752e+01
    C27       R11       -1
    C27       R43       2
    C27       R75       -4.0000000001023267e+01
    C27       R107      4
    C27       R139      -4
    C27       R171      4.0000000001023267e+01
    C28       R12       -1
    C28       R44       2
    C28       R76       -4.0000000000020727e+01
    C28       R108      4
    C28       R140      -4
    C28       R172      4.0000000000020727e+01
    C29       R13       -1
    C29       R45       2
    C29       R77       -4.0000000001044690e+01
    C29       R109      4
    C29       R141      -4
    C29       R173      4.0000000001044690e+01
    C30       R14       -1
    C30       R46       2
    C30       R78       -3.9999999999999339e+01
    C30       R110      4
    C30       R142      -4
    C30       R174      3.9999999999999339e+01
    C31       R15       -1
    C31       R47       2
    C31       R79       -4.0000000001001062e+01
    C31       R111      4
    C31       R143      -4
    C31       R175      4.0000000001001062e+01
    C32       R16       -1
    C32       R48       2
    C32       R80       -4.0000000000024350e+01
    C32       R112      4
    C32       R144      -4
    C32       R176      4.0000000000024350e+01
    C33       R17       -1
    C33       R49       2
    C33       R81       -4.0000000001048456e+01
    C33       R113      4
    C33       R145      -4
    C33       R177      4.0000000001048456e+01
    C34       R18       -1
    C34       R50       2
    C34       R82       -4.0000000000022752e+01
    C34       R114      4
    C34       R146      -4
    C34       R178      4.0000000000022752e+01
    C35       R19       -1
    C35       R51       2
    C35       R83       -4.0000000001023267e+01
    C35       R115      4
    C35       R147      -4
    C35       R179      4.0000000001023267e+01
    C36       R20       -1
    C36       R52       2
    C36       R84       -4.0000000000020727e+01
    C36       R116      4
    C36       R148      -4
    C36       R180      4.0000000000020727e+01
    C37       R21       -1
    C37       R53       2
    C37       R85       -4.0000000001044690e+01
    C37       R117      4
    C37       R149      -4
    C37       R181      4.0000000001044690e+01
    C38       R22       -1
    C38       R54       2
    C38       R86       -3.9999999999999339e+01
    C38       R118      4
    C38       R150      -4
    C38       R182      3.9999999999999339e+01
    C39       R23       -1
    C39       R55       2
    C39       R87       -4.0000000001001062e+01
    C39       R119      4
    C39       R151      -4
    C39       R183      4.0000000001001062e+01
    C40       R24       -1
    C40       R56       2
    C40       R88       -4.0000000000024350e+01
    C40       R120      4
    C40       R152      -4
    C40       R184      4.0000000000024350e+01
    C41       R25       -1
    C41       R57       2
    C41       R89       -4.0000000001048456e+01
    C41       R121      4
    C41       R153      -4
    C41       R185      4.0000000001048456e+01
    C42       R26       -1
    C42       R58       2
    C42       R90       -4.0000000000022752e+01
    C42       R122      4
    C42       R154      -4
    C42       R186      4.0000000000022752e+01
    C43       R27       -1
    C43       R59       2
    C43       R91       -4.0000000001023267e+01
    C43       R123      4
    C43       R155      -4
    C43       R187      4.0000000001023267e+01
    C44       R28       -1
    C44       R60       2
    C44       R92       -4.0000000000020727e+01
    C44       R124      4
    C44       R156      -4
    C44       R188      4.0000000000020727e+01
    C45       R29       -1
    C45       R61       2
    C45       R93       -4.0000000001044690e+01
    C45       R125      4
    C45       R157      -4
    C45       R189      4.0000000001044690e+01
    C46       R30       -1
    C46       R62       2
    C46       R94       -3.9999999999999339e+01
    C46       R126      4
    C46       R158      -4
    C46       R190      3.9999999999999339e+01
    C47       R31       -1
    C47       R63       2
    C47       R95       -4.0000000001001062e+01
    C47       R127      4
    C47       R159      -4
    C47       R191      4.0000000001001062e+01
    C48       R64       1
    C48       R96       -1
    C48       R128      1
    C48       R160      -1
    C49       R65       1
    C49       R97       -1
    C49       R129      1
    C49       R161      -1
    C50       R66       1
    C50       R98       -1
    C50       R130      1
    C50       R162      -1
    C51       R67       1
    C51       R99       -1
    C51       R131      1
    C51       R163      -1
    C52       R68       1
    C52       R100      -1
    C52       R132      1
    C52       R164      -1
    C53       R69       1
    C53       R101      -1
    C53       R133      1
    C53       R165      -1
    C54       R70       1
    C54       R102      -1
    C54       R134      1
    C54       R166      -1
    C55       R71       1
    C55       R103      -1
    C55       R135      1
    C55       R167      -1
    C56       R72       1
    C56       R104      -1
    C56       R136      1
    C56       R168      -1
    C57       R73       1
    C57       R105      -1
    C57       R137      1
    C57       R169      -1
    C58       R74       1
    C58       R106      -1
    C58       R138      1
    C58       R170      -1
    C59       R75       1
    C59       R107      -1
    C59       R139      1
    C59       R171      -1
    C60       R76       1
    C60       R108      -1
    C60       R140      1
    C60       R172      -1
    C61       R77       1
    C61       R109      -1
    C61       R141      1
    C61       R173      -1
    C62       R78       1
    C62       R110      -1
    C62       R142      1
    C62       R174      -1
    C63       R79       1
    C63       R111      -1
    C63       R143      1
    C63       R175      -1
    C64       R80       1
    C64       R112      -1
    C64       R144      1
    C64       R176      -1
    C65       R81       1
    C65       R113      -1
    C65       R145      1
    C65       R177      -1
    C66       R82       1
    C66       R114      -1
    C66       R146      1
    C66       R178      -1
    C67       R83       1
    C67       R115      -1
    C67       R147      1
    C67       R179      -1
    C68       R84       1
    C68       R116      -1
    C68       R148      1
    C68       R180      -1
    C69       R85       1
    C69       R117      -1
    C69       R149      1
    C69       R181      -1
    C70       R86       1
    C70       R118      -1
    C70       R150      1
    C70       R182      -1
    C71       R87       1
    C71       R119      -1
    C71       R151      1
    C71       R183      -1
    C72       R88       1
    C72       R120      -1
    C72       R152      1
    C72       R184      -1
    C73       R89       1
    C73       R121      -1
    C73       R153      1
    C73       R185      -1
    C74       R90       1
    C74       R122      -1
    C74       R154      1
    C74       R186      -1
    C75       R91       1
    C75       R123      -1
    C75       R155      1
    C75       R187      -1
    C76       R92       1
    C76       R124      -1
    C76       R156      1
    C76       R188      -1
    C77       R93       1
    C77       R125      -1
    C77       R157      1
    C77       R189      -1
    C78       R94       1
    C78       R126      -1
    C78       R158      1
    C78       R190      -1
    C79       R95       1
    C79       R127      -1
    C79       R159      1
    C79       R191      -1
    C80       OBJ       0
    C81       OBJ       0
    C82       OBJ       0
    C83       OBJ       0
    C84       OBJ       0
    C85       OBJ       0
    C86       OBJ       0
    C87       OBJ       0
RHS
    RHS1      R0        1
    RHS1      R1        1
    RHS1      R2        1
    RHS1      R3        1
    RHS1      R4        1
    RHS1      R5        1
    RHS1      R6        1
    RHS1      R7        1
    RHS1      R8        1
    RHS1      R9        1
    RHS1      R10       1
    RHS1      R11       1
    RHS1      R12       1
    RHS1      R13       1
    RHS1      R14       1
    RHS1      R15       1
    RHS1      R16       1
    RHS1      R17       1
    RHS1      R18       1
    RHS1      R19       1
    RHS1      R20       1
    RHS1      R21       1
    RHS1      R22       1
    RHS1      R23       1
    RHS1      R24       1
    RHS1      R25       1
    RHS1      R26       1
    RHS1      R27       1
    RHS1      R28       1
    RHS1      R29       1
    RHS1      R30       1
    RHS1      R31       1
    RHS1      R128      -4
    RHS1      R129      -4
    RHS1      R130      -4
    RHS1      R131      -4
    RHS1      R132      -4
    RHS1      R133      -4
    RHS1      R134      -4
    RHS1      R135      -4
    RHS1      R136      -4
    RHS1      R137      -4
    RHS1      R138      -4
    RHS1      R139      -4
    RHS1      R140      -4
    RHS1      R141      -4
    RHS1      R142      -4
    RHS1      R143      -4
    RHS1      R144      -4
    RHS1      R145      -4
    RHS1      R146      -4
    RHS1      R147      -4
    RHS1      R148      -4
    RHS1      R149      -4
    RHS1      R150      -4
    RHS1      R151      -4
    RHS1      R152      -4
    RHS1      R153      -4
    RHS1      R154      -4
    RHS1      R155      -4
    RHS1      R156      -4
    RHS1      R157      -4
    RHS1      R158      -4
    RHS1      R159      -4
    RHS1      R160      4.0000000000024350e+01
    RHS1      R161      4.0000000001048456e+01
    RHS1      R162      4.0000000000022752e+01
    RHS1      R163      4.0000000001023267e+01
    RHS1      R164      4.0000000000020727e+01
    RHS1      R165      4.0000000001044690e+01
    RHS1      R166      3.9999999999999339e+01
    RHS1      R167      4.0000000001001062e+01
    RHS1      R168      4.0000000000024350e+01
    RHS1      R169      4.0000000001048456e+01
    RHS1      R170      4.0000000000022752e+01
    RHS1      R171      4.0000000001023267e+01
    RHS1      R172      4.0000000000020727e+01
    RHS1      R173      4.0000000001044690e+01
    RHS1      R174      3.9999999999999339e+01
    RHS1      R175      4.0000000001001062e+01
    RHS1      R176      4.0000000000024350e+01
    RHS1      R177      4.0000000001048456e+01
    RHS1      R178      4.0000000000022752e+01
    RHS1      R179      4.0000000001023267e+01
    RHS1      R180      4.0000000000020727e+01
    RHS1      R181      4.0000000001044690e+01
    RHS1      R182      3.9999999999999339e+01
    RHS1      R183      4.0000000001001062e+01
    RHS1      R184      4.0000000000024350e+01
    RHS1      R185      4.0000000001048456e+01
    RHS1      R186      4.0000000000022752e+01
    RHS1      R187      4.0000000001023267e+01
    RHS1      R188      4.0000000000020727e+01
    RHS1      R189      4.0000000001044690e+01
    RHS1      R190      3.9999999999999339e+01
    RHS1      R191      4.0000000001001062e+01
    RHS1      R192      1
    RHS1      R193      1
    RHS1      R194      1
    RHS1      R195      1
BOUNDS
 UP BND1      C0        1
 UP BND1      C1        1
 UP BND1      C2        1
 UP BND1      C3        1
 UP BND1      C4        1
 UP BND1      C5        1
 UP BND1      C6        1
 UP BND1      C7        1
 LO BND1      C8        4
 UP BND1      C8        4.0000000000024350e+01
 LO BND1      C9        4
 UP BND1      C9        4.0000000001048456e+01
 LO BND1      C10       4
 UP BND1      C10       4.0000000000022752e+01
 LO BND1      C11       4
 UP BND1      C11       4.0000000001023267e+01
 LO BND1      C12       4
 UP BND1      C12       4.0000000000020727e+01
 LO BND1      C13       4
 UP BND1      C13       4.0000000001044690e+01
 LO BND1      C14       4
 UP BND1      C14       3.9999999999999339e+01
 LO BND1      C15       4
 UP BND1      C15       4.0000000001001062e+01
 UP BND1      C16       1
 UP BND1      C17       1
 UP BND1      C18       1
 UP BND1      C19       1
 UP BND1      C20       1
 UP BND1      C21       1
 UP BND1      C22       1
 UP BND1      C23       1
 UP BND1      C24       1
 UP BND1      C25       1
 UP BND1      C26       1
 UP BND1      C27       1
 UP BND1      C28       1
 UP BND1      C29       1
 UP BND1      C30       1
 UP BND1      C31       1
 UP BND1      C32       1
 UP BND1      C33       1
 UP BND1      C34       1
 UP BND1      C35       1
 UP BND1      C36       1
 UP BND1      C37       1
 UP BND1      C38       1
 UP BND1      C39       1
 UP BND1      C40       1
 UP BND1      C41       1
 UP BND1      C42       1
 UP BND1      C43       1
 UP BND1      C44       1
 UP BND1      C45       1
 UP BND1      C46       1
 UP BND1      C47       1
 UP BND1      C48       1
 UP BND1      C49       1
 UP BND1      C50       1
 UP BND1      C51       1
 UP BND1      C52       1
 UP BND1      C53       1
 UP BND1      C54       1
 UP BND1      C55       1
 UP BND1      C56       1
 UP BND1      C57       1
 UP BND1      C58       1
 UP BND1      C59       1
 UP BND1      C60       1
 UP BND1      C61       1
 UP BND1      C62       1
 UP BND1      C63       1
 UP BND1      C64       1
 UP BND1      C65       1
 UP BND1      C66       1
 UP BND1      C67       1
 UP BND1      C68       1
 UP BND1      C69       1
 UP BND1      C70       1
 UP BND1      C71       1
 UP BND1      C72       1
 UP BND1      C73       1
 UP BND1      C74       1
 UP BND1      C75       1
 UP BND1      C76       1
 UP BND1      C77       1
 UP BND1      C78       1
 UP BND1      C79       1
 LO BND1      C80       2.4999999999984781e-02
 UP BND1      C80       0.25
 LO BND1      C81       2.4999999999344717e-02
 UP BND1      C81       0.25
 LO BND1      C82       2.4999999999985780e-02
 UP BND1      C82       0.25
 LO BND1      C83       2.4999999999360457e-02
 UP BND1      C83       0.25
 LO BND1      C84       2.4999999999987046e-02
 UP BND1      C84       0.25
 LO BND1      C85       2.4999999999347069e-02
 UP BND1      C85       0.25
 LO BND1      C86       2.5000000000000414e-02
 UP BND1      C86       0.25
 LO BND1      C87       2.4999999999374335e-02
 UP BND1      C87       0.25
QUADOBJ
    C0        C80       2e-12
    C1        C81       2e-12
    C2        C82       2e-12
    C3        C83       2e-12
    C4        C84       2e-12
    C5        C85       2e-12
    C6        C86       2e-12
    C7        C87       2e-12
    C50       C80       2.5123148167035615e-09
    C51       C81       2.5123148167035615e-09
    C52       C80       1.2859040824266870e-09
    C53       C81       1.2859040824266870e-09
    C54       C80       1.1004623650221325e-09
    C55       C81       1.1004623650221325e-09
    C56       C82       5.0668618412405856e-09
    C57       C83       5.0668618412405856e-09
    C60       C82       1.7941812961423569e-09
    C61       C83       1.7941812961423569e-09
    C62       C82       1.0200292105505493e-09
    C63       C83       1.0200292105505493e-09
    C64       C84       9.4889105007080660e-10
    C65       C85       9.4889105007080660e-10
    C66       C84       1.0965608645566385e-08
    C67       C85       1.0965608645566385e-08
    C70       C84       2.5673913324655635e-10
    C71       C85       2.5673913324655635e-10
    C72       C86       5.9649780927956039e-09
    C73       C87       5.9649780927956039e-09
    C74       C86       3.6965321805693634e-10
    C75       C87       3.6965321805693634e-10
    C76       C86       4.5366731313528654e-09
    C77       C87       4.5366731313528654e-09
ENDATA
